Maximize
OBJ: x + 5 y + 6 z + w + 8 a + 9 b + 3 c
Subject To
s1: x + y <= 5
s2: y + z <= 6
s2: z + w <= 7
s4: w + a <= 1995
s5: w + b + c <= 467
s6: x + c + b => 2
s7: x => 0
s8: y => 0
s9: z => 0
s10: w => 0
s11: a => 0
s12: b => 0
s13: c => 0
End

